c This is QMaxSAT 2017 based on 14.07
c This is Glucose 3.0
c This is MiniSat 2.2.0
c WARNING: for repeatability, setting FPU to use double precision
c card = mrwto, comp = 0, pmodel = 0, narr = 27, mct = 76, verb = 0
cr firstCPXsol 0 0 0
c top = 189219
c |  Number of variables:    20808                                            |
c |  Number of clauses:      1732104                                          |
c |  Weight of hard clauses: 189219                                           |
c |  Number of soft clauses: 259200                                           |
c |  Number of unit soft clauses: 0                                           |
c |  Maximum Cardinality (by unit): 8430750      (0           )               |
c last restart ## conflicts  :  1 6177 
o 961 | cpuTime 0.265518 s
c Sum of weights = 312250
c A number of soft clauses remained = 9600
c MRWTO encoding for Pseudo-Boolean Constraints
c sizeMax=961
c No.0 Divisor=10	generated by pow1
c No.1 Divisor=10	generated by pow1
c No.2 Divisor=10	generated by pow1
c p0= 10	p1= 10	p2= 10	
c number of digits = 4
c linkingVar[0].size = 10, linkingVar[1].size = 10, linkingVar[2].size = 10, linkingVar[3].size = 1, 
c Pseudo-Boolean Constraints: 176111 variables and 1402390 clauses
c Sum of weights = 312250
c A number of soft clauses remained = 9600
c MRWTO encoding for Pseudo-Boolean Constraints
c sizeMax=961
c No.0 Divisor=10	generated by pow1
c No.1 Divisor=10	generated by pow1
c No.2 Divisor=10	generated by pow1
c p0= 10	p1= 10	p2= 10	
c number of digits = 4
c linkingVar[0].size = 10, linkingVar[1].size = 10, linkingVar[2].size = 10, linkingVar[3].size = 1, 
c Pseudo-Boolean Constraints: 176111 variables and 1402390 clauses
c Sum of weights = 312250
c A number of soft clauses remained = 9600
c MRWTO encoding for Pseudo-Boolean Constraints
c sizeMax=961
c No.0 Divisor=10	generated by pow1
c No.1 Divisor=10	generated by pow1
c No.2 Divisor=10	generated by pow1
c p0= 10	p1= 10	p2= 10	
c number of digits = 4
c linkingVar[0].size = 10, linkingVar[1].size = 10, linkingVar[2].size = 10, linkingVar[3].size = 1, 
c Pseudo-Boolean Constraints: 176111 variables and 1402390 clauses
c Sum of weights = 312250
c A number of soft clauses remained = 9600
c MRWTO encoding for Pseudo-Boolean Constraints
c sizeMax=961
c No.0 Divisor=10	generated by pow1
c No.1 Divisor=10	generated by pow1
c No.2 Divisor=10	generated by pow1
c p0= 10	p1= 10	p2= 10	
c number of digits = 4
c linkingVar[0].size = 10, linkingVar[1].size = 10, linkingVar[2].size = 10, linkingVar[3].size = 1, 
c Pseudo-Boolean Constraints: 176111 variables and 1402390 clauses
c Sum of weights = 312250
c A number of soft clauses remained = 9600
c MRWTO encoding for Pseudo-Boolean Constraints
c sizeMax=961
c No.0 Divisor=10	generated by pow1
c No.1 Divisor=10	generated by pow1
c No.2 Divisor=10	generated by pow1
c p0= 10	p1= 10	p2= 10	
c number of digits = 4
c linkingVar[0].size = 10, linkingVar[1].size = 10, linkingVar[2].size = 10, linkingVar[3].size = 1, 
c Pseudo-Boolean Constraints: 176111 variables and 1402390 clauses
c Sum of weights = 312250
c A number of soft clauses remained = 9600
c MRWTO encoding for Pseudo-Boolean Constraints
c sizeMax=961
c No.0 Divisor=10	generated by pow1
c No.1 Divisor=10	generated by pow1
c No.2 Divisor=10	generated by pow1
c p0= 10	p1= 10	p2= 10	
c number of digits = 4
c linkingVar[0].size = 10, linkingVar[1].size = 10, linkingVar[2].size = 10, linkingVar[3].size = 1, 
c Pseudo-Boolean Constraints: 176111 variables and 1402390 clauses
c Sum of weights = 312250
c A number of soft clauses remained = 9600
c MRWTO encoding for Pseudo-Boolean Constraints
c sizeMax=961
c No.0 Divisor=10	generated by pow1
c No.1 Divisor=10	generated by pow1
c No.2 Divisor=10	generated by pow1
c p0= 10	p1= 10	p2= 10	
c number of digits = 4
c linkingVar[0].size = 10, linkingVar[1].size = 10, linkingVar[2].size = 10, linkingVar[3].size = 1, 
c Pseudo-Boolean Constraints: 176111 variables and 1402390 clauses
c Sum of weights = 312250
c A number of soft clauses remained = 9600
c MRWTO encoding for Pseudo-Boolean Constraints
c sizeMax=961
c No.0 Divisor=10	generated by pow1
c No.1 Divisor=10	generated by pow1
c No.2 Divisor=10	generated by pow1
c p0= 10	p1= 10	p2= 10	
c number of digits = 4
c linkingVar[0].size = 10, linkingVar[1].size = 10, linkingVar[2].size = 10, linkingVar[3].size = 1, 
c Pseudo-Boolean Constraints: 176111 variables and 1402390 clauses
c Sum of weights = 312250
c A number of soft clauses remained = 9600
c MRWTO encoding for Pseudo-Boolean Constraints
c sizeMax=961
c No.0 Divisor=10	generated by pow1
c No.1 Divisor=10	generated by pow1
c No.2 Divisor=10	generated by pow1
c p0= 10	p1= 10	p2= 10	
c number of digits = 4
c linkingVar[0].size = 10, linkingVar[1].size = 10, linkingVar[2].size = 10, linkingVar[3].size = 1, 
c Pseudo-Boolean Constraints: 176111 variables and 1402390 clauses
c Sum of weights = 312250
c A number of soft clauses remained = 9600
c MRWTO encoding for Pseudo-Boolean Constraints
c sizeMax=961
c No.0 Divisor=10	generated by pow1
c No.1 Divisor=10	generated by pow1
c No.2 Divisor=10	generated by pow1
c p0= 10	p1= 10	p2= 10	
c number of digits = 4
c linkingVar[0].size = 10, linkingVar[1].size = 10, linkingVar[2].size = 10, linkingVar[3].size = 1, 
c Pseudo-Boolean Constraints: 176111 variables and 1402390 clauses
c Sum of weights = 312250
c A number of soft clauses remained = 9600
c MRWTO encoding for Pseudo-Boolean Constraints
c sizeMax=961
c No.0 Divisor=10	generated by pow1
c No.1 Divisor=10	generated by pow1
c No.2 Divisor=10	generated by pow1
c p0= 10	p1= 10	p2= 10	
c number of digits = 4
c linkingVar[0].size = 10, linkingVar[1].size = 10, linkingVar[2].size = 10, linkingVar[3].size = 1, 
c Pseudo-Boolean Constraints: 176111 variables and 1402390 clauses
c Sum of weights = 312250
c A number of soft clauses remained = 9600
c MRWTO encoding for Pseudo-Boolean Constraints
c sizeMax=961
c No.0 Divisor=10	generated by pow1
c No.1 Divisor=10	generated by pow1
c No.2 Divisor=10	generated by pow1
c p0= 10	p1= 10	p2= 10	
c number of digits = 4
c linkingVar[0].size = 10, linkingVar[1].size = 10, linkingVar[2].size = 10, linkingVar[3].size = 1, 
c Pseudo-Boolean Constraints: 176111 variables and 1402390 clauses
c Sum of weights = 312250
c A number of soft clauses remained = 9600
c MRWTO encoding for Pseudo-Boolean Constraints
c sizeMax=961
c No.0 Divisor=10	generated by pow1
c No.1 Divisor=10	generated by pow1
c No.2 Divisor=10	generated by pow1
c p0= 10	p1= 10	p2= 10	
c number of digits = 4
c linkingVar[0].size = 10, linkingVar[1].size = 10, linkingVar[2].size = 10, linkingVar[3].size = 1, 
c Pseudo-Boolean Constraints: 176111 variables and 1402390 clauses
c Sum of weights = 312250
c A number of soft clauses remained = 9600
c MRWTO encoding for Pseudo-Boolean Constraints
c sizeMax=961
c No.0 Divisor=10	generated by pow1
c No.1 Divisor=10	generated by pow1
c No.2 Divisor=10	generated by pow1
c p0= 10	p1= 10	p2= 10	
c number of digits = 4
c linkingVar[0].size = 10, linkingVar[1].size = 10, linkingVar[2].size = 10, linkingVar[3].size = 1, 
c Pseudo-Boolean Constraints: 176111 variables and 1402390 clauses
c Sum of weights = 312250
c A number of soft clauses remained = 9600
c MRWTO encoding for Pseudo-Boolean Constraints
c sizeMax=961
c No.0 Divisor=10	generated by pow1
c No.1 Divisor=10	generated by pow1
c No.2 Divisor=10	generated by pow1
c p0= 10	p1= 10	p2= 10	
c number of digits = 4
c linkingVar[0].size = 10, linkingVar[1].size = 10, linkingVar[2].size = 10, linkingVar[3].size = 1, 
c Pseudo-Boolean Constraints: 176111 variables and 1402390 clauses
c Sum of weights = 312250
c A number of soft clauses remained = 9600
c MRWTO encoding for Pseudo-Boolean Constraints
c sizeMax=961
c No.0 Divisor=10	generated by pow1
c No.1 Divisor=10	generated by pow1
c No.2 Divisor=10	generated by pow1
c p0= 10	p1= 10	p2= 10	
c number of digits = 4
c linkingVar[0].size = 10, linkingVar[1].size = 10, linkingVar[2].size = 10, linkingVar[3].size = 1, 
c Pseudo-Boolean Constraints: 176111 variables and 1402390 clauses
c Sum of weights = 312250
c A number of soft clauses remained = 9600
c MRWTO encoding for Pseudo-Boolean Constraints
c sizeMax=961
c No.0 Divisor=10	generated by pow1
c No.1 Divisor=10	generated by pow1
c No.2 Divisor=10	generated by pow1
c p0= 10	p1= 10	p2= 10	
c number of digits = 4
c linkingVar[0].size = 10, linkingVar[1].size = 10, linkingVar[2].size = 10, linkingVar[3].size = 1, 
c Pseudo-Boolean Constraints: 176111 variables and 1402390 clauses
c Sum of weights = 312250
c A number of soft clauses remained = 9600
c MRWTO encoding for Pseudo-Boolean Constraints
c sizeMax=961
c No.0 Divisor=10	generated by pow1
c No.1 Divisor=10	generated by pow1
c No.2 Divisor=10	generated by pow1
c p0= 10	p1= 10	p2= 10	
c number of digits = 4
c linkingVar[0].size = 10, linkingVar[1].size = 10, linkingVar[2].size = 10, linkingVar[3].size = 1, 
c Pseudo-Boolean Constraints: 176111 variables and 1402390 clauses
c Sum of weights = 312250
c A number of soft clauses remained = 9600
c MRWTO encoding for Pseudo-Boolean Constraints
c sizeMax=961
c No.0 Divisor=10	generated by pow1
c No.1 Divisor=10	generated by pow1
c No.2 Divisor=10	generated by pow1
c p0= 10	p1= 10	p2= 10	
c number of digits = 4
c linkingVar[0].size = 10, linkingVar[1].size = 10, linkingVar[2].size = 10, linkingVar[3].size = 1, 
c Pseudo-Boolean Constraints: 176111 variables and 1402390 clauses
c Sum of weights = 312250
c A number of soft clauses remained = 9600
c MRWTO encoding for Pseudo-Boolean Constraints
c sizeMax=961
c No.0 Divisor=10	generated by pow1
c No.1 Divisor=10	generated by pow1
c No.2 Divisor=10	generated by pow1
c p0= 10	p1= 10	p2= 10	
c number of digits = 4
c linkingVar[0].size = 10, linkingVar[1].size = 10, linkingVar[2].size = 10, linkingVar[3].size = 1, 
c Pseudo-Boolean Constraints: 176111 variables and 1402390 clauses
c Sum of weights = 312250
c A number of soft clauses remained = 9600
c MRWTO encoding for Pseudo-Boolean Constraints
c sizeMax=961
c No.0 Divisor=10	generated by pow1
c No.1 Divisor=10	generated by pow1
c No.2 Divisor=10	generated by pow1
c p0= 10	p1= 10	p2= 10	
c number of digits = 4
c linkingVar[0].size = 10, linkingVar[1].size = 10, linkingVar[2].size = 10, linkingVar[3].size = 1, 
c Pseudo-Boolean Constraints: 176111 variables and 1402390 clauses
c Sum of weights = 312250
c A number of soft clauses remained = 9600
c MRWTO encoding for Pseudo-Boolean Constraints
c sizeMax=961
c No.0 Divisor=10	generated by pow1
c No.1 Divisor=10	generated by pow1
c No.2 Divisor=10	generated by pow1
c p0= 10	p1= 10	p2= 10	
c number of digits = 4
c linkingVar[0].size = 10, linkingVar[1].size = 10, linkingVar[2].size = 10, linkingVar[3].size = 1, 
c Pseudo-Boolean Constraints: 176111 variables and 1402390 clauses
c Sum of weights = 312250
c A number of soft clauses remained = 9600
c MRWTO encoding for Pseudo-Boolean Constraints
c sizeMax=961
c No.0 Divisor=10	generated by pow1
c No.1 Divisor=10	generated by pow1
c No.2 Divisor=10	generated by pow1
c p0= 10	p1= 10	p2= 10	
c number of digits = 4
c linkingVar[0].size = 10, linkingVar[1].size = 10, linkingVar[2].size = 10, linkingVar[3].size = 1, 
c Pseudo-Boolean Constraints: 176111 variables and 1402390 clauses
c Sum of weights = 312250
c A number of soft clauses remained = 9600
c MRWTO encoding for Pseudo-Boolean Constraints
c sizeMax=961
c No.0 Divisor=10	generated by pow1
c No.1 Divisor=10	generated by pow1
c No.2 Divisor=10	generated by pow1
c p0= 10	p1= 10	p2= 10	
c number of digits = 4
c linkingVar[0].size = 10, linkingVar[1].size = 10, linkingVar[2].size = 10, linkingVar[3].size = 1, 
c Pseudo-Boolean Constraints: 176111 variables and 1402390 clauses
c Sum of weights = 312250
c A number of soft clauses remained = 9600
c MRWTO encoding for Pseudo-Boolean Constraints
c sizeMax=961
c No.0 Divisor=10	generated by pow1
c No.1 Divisor=10	generated by pow1
c No.2 Divisor=10	generated by pow1
c p0= 10	p1= 10	p2= 10	
c number of digits = 4
c linkingVar[0].size = 10, linkingVar[1].size = 10, linkingVar[2].size = 10, linkingVar[3].size = 1, 
c Pseudo-Boolean Constraints: 176111 variables and 1402390 clauses
c Sum of weights = 312250
c A number of soft clauses remained = 9600
c MRWTO encoding for Pseudo-Boolean Constraints
c sizeMax=961
c No.0 Divisor=10	generated by pow1
c No.1 Divisor=10	generated by pow1
c No.2 Divisor=10	generated by pow1
c p0= 10	p1= 10	p2= 10	
c number of digits = 4
c linkingVar[0].size = 10, linkingVar[1].size = 10, linkingVar[2].size = 10, linkingVar[3].size = 1, 
c Pseudo-Boolean Constraints: 176111 variables and 1402390 clauses
c Sum of weights = 312250
c A number of soft clauses remained = 9600
c MRWTO encoding for Pseudo-Boolean Constraints
c sizeMax=961
c No.0 Divisor=10	generated by pow1
c No.1 Divisor=10	generated by pow1
c No.2 Divisor=10	generated by pow1
c p0= 10	p1= 10	p2= 10	
c number of digits = 4
c linkingVar[0].size = 10, linkingVar[1].size = 10, linkingVar[2].size = 10, linkingVar[3].size = 1, 
c Pseudo-Boolean Constraints: 176111 variables and 1402390 clauses
c last restart ## conflicts  :  413 63637 
o 471 | cpuTime 17.3405 s
c last restart ## conflicts  :  207 76720 
o 259 | cpuTime 48.98 s
c last restart ## conflicts  :  322 69996 
o 228 | cpuTime 131.026 s
c last restart ## conflicts  :  362 96045 
o 215 | cpuTime 392.853 s
c last restart ## conflicts  :  207 30149 
o 205 | cpuTime 598.56 s
c last restart ## conflicts  :  470 22217 
o 181 | cpuTime 913.381 s
c last restart ## conflicts  :  182 45058 
o 169 | cpuTime 1050.98 s
c last restart ## conflicts  :  168 43124 
o 168 | cpuTime 1301.5 s
s UNKNOWN
c Search is stopped by a limit (maybe time-limit)
cr positiVarArr: [ | 85(1->59) | 134(1->6) | 255(1->25) | 358(1->26) | 507(1->73) | 564(1->28) | 702(1->64) | 781(1->41) | 847(1->5) | 954(1->10) | 1103(1->57) | 1181(1->33) | 1271(1->21) | 1376(1->24) | 1489(1->35) | 1578(1->22) | 1733(1->75) | 1822(1->62) | 1906(1->44) | 2013(1->49) | 2120(1->54) | 2235(1->67) | 2301(1->31) | 2433(1->61) | 2516(1->42) | 2644(1->68) | 2733(1->55) | 2836(2->56) | 2894(3->12) | 3023(4->39) | 3115(5->29) | 3203(6->15) | 3356(7->66) | 3367(8->1) | 3526(9->32) | 3642(10->46) | 3717(11->19) | 3816(12->16) | 3890(13->1) | 3980(14->1) | 4133(15->27) | 4259(16->51) | 4314(17->4) | 4407(18->1) | 4522(19->8) | 4661(20->45) | 4754(21->36) | 4843(22->23) | 4902(23->1) | 5038(24->14) | 5184(25->58) | 5235(26->7) | 5332(27->2) | 5410(28->1) | 5577(29->43) | 5630(30->1) | 5772(31->34) | 5823(32->1) | 5939(33->1) | 6113(34->69) | 6155(35->9) | 6285(36->37) | 6370(37->20) | 6517(38->65) | 6617(39->63) | 6657(40->1) | 6756(41->1) | 6850(42->1) | 6954(43->1) | 7082(44->18) | 7148(45->1) | 7298(46->30) | 7361(47->1) | 7472(48->1) | 7573(49->1) | 7679(50->3) | 7759(51->1) | 7869(52->1) | 8020(53->38) | 8137(54->53) | 8203(55->17) | 8267(56->1) | 8450(57->60) | 8532(58->40) | 8642(59->48) | 8709(60->13) | 8868(61->70) | 8947(62->47) | 8979(63->1) | 9089(64->1) | 9217(65->11) | 9360(66->52) | 9396(67->1) | 9562(68->50) | 9610(69->1) | 9787(70->71) | 9892(71->74) | 9913(72->1) | 10006(73->1) | 10111(74->1) | 10302(75->76) | 10400(76->72) | ]
cr the 1-th chain: [ 1->59->48->1 ] (#non-depot=2) {#cumul.=3}
cr the 2-th chain: [ 1->6->15->27->2->56->1 ] (#non-depot=5) {#cumul.=8}
cr the 3-th chain: [ 1->25->58->40->1 ] (#non-depot=3) {#cumul.=11}
cr the 4-th chain: [ 1->26->7->66->52->1 ] (#non-depot=4) {#cumul.=15}
cr the 5-th chain: [ 1->73->1 ] (#non-depot=1) {#cumul.=16}
cr the 6-th chain: [ 1->28->1 ] (#non-depot=1) {#cumul.=17}
cr the 7-th chain: [ 1->64->1 ] (#non-depot=1) {#cumul.=18}
cr the 8-th chain: [ 1->41->1 ] (#non-depot=1) {#cumul.=19}
cr the 9-th chain: [ 1->5->29->43->1 ] (#non-depot=3) {#cumul.=22}
cr the 10-th chain: [ 1->10->46->30->1 ] (#non-depot=3) {#cumul.=25}
cr the 11-th chain: [ 1->57->60->13->1 ] (#non-depot=3) {#cumul.=28}
cr the 12-th chain: [ 1->33->1 ] (#non-depot=1) {#cumul.=29}
cr the 13-th chain: [ 1->21->36->37->20->45->1 ] (#non-depot=5) {#cumul.=34}
cr the 14-th chain: [ 1->24->14->1 ] (#non-depot=2) {#cumul.=36}
cr the 15-th chain: [ 1->35->9->32->1 ] (#non-depot=3) {#cumul.=39}
cr the 16-th chain: [ 1->22->23->1 ] (#non-depot=2) {#cumul.=41}
cr the 17-th chain: [ 1->75->76->72->1 ] (#non-depot=3) {#cumul.=44}
cr the 18-th chain: [ 1->62->47->1 ] (#non-depot=2) {#cumul.=46}
cr the 19-th chain: [ 1->44->18->1 ] (#non-depot=2) {#cumul.=48}
cr the 20-th chain: [ 1->49->1 ] (#non-depot=1) {#cumul.=49}
cr the 21-th chain: [ 1->54->53->38->65->11->19->8->1 ] (#non-depot=7) {#cumul.=56}
cr the 22-th chain: [ 1->67->1 ] (#non-depot=1) {#cumul.=57}
cr the 23-th chain: [ 1->31->34->69->1 ] (#non-depot=3) {#cumul.=60}
cr the 24-th chain: [ 1->61->70->71->74->1 ] (#non-depot=4) {#cumul.=64}
cr the 25-th chain: [ 1->42->1 ] (#non-depot=1) {#cumul.=65}
cr the 26-th chain: [ 1->68->50->3->12->16->51->1 ] (#non-depot=6) {#cumul.=71}
cr the 27-th chain: [ 1->55->17->4->39->63->1 ] (#non-depot=5) {#cumul.=76}
c Latest Answer = 0 by 9 loops
c restarts              : 17083
c conflicts             : 2488750        (692 /sec)
c decisions             : 159377417      (0.00 % random) (44312 /sec)
c propagations          : 35345421429    (9827107 /sec)
c conflict literals     : 476995030      (28.12 % deleted)
c Memory used           : 4209.00 MB
c CPU time              : 3596.73 s
